Instance name: /home/cuong/CLionProjects/uMV-FSTSP/50_dis_rand_ins/v23
Write arg val: 1

drone speed: 1 miles/minute
uav non-eligible customer: 11 
Printing tau:
0 6.83125 65.6925 55.1067 42.6327 30.9636 38.6809 52.3792 56.0336 81.8578 110.347 0 
6.83125 0 58.8612 48.2755 35.8015 24.1324 31.8496 45.5479 49.2023 75.0265 103.516 6.83125 
65.6925 58.8612 0 10.5858 24.6755 45.9821 28.3864 88.5056 74.0282 41.8376 44.6547 65.6925 
55.1067 48.2755 10.5858 0 20.4084 41.715 24.1193 84.2385 69.7611 37.5705 55.2405 55.1067 
42.6327 35.8015 24.6755 20.4084 0 21.3067 3.95188 63.8302 49.3527 39.225 67.7144 42.6327 
30.9636 24.1324 45.9821 41.715 21.3067 0 17.5957 42.5235 28.0461 50.8941 79.3835 30.9636 
38.6809 31.8496 28.3864 24.1193 3.95188 17.5957 0 60.1192 45.6417 43.1769 71.6663 38.6809 
52.3792 45.5479 88.5056 84.2385 63.8302 42.5235 60.1192 0 14.4774 46.668 57.968 52.3792 
56.0336 49.2023 74.0282 69.7611 49.3527 28.0461 45.6417 14.4774 0 32.1905 54.3136 56.0336 
81.8578 75.0265 41.8376 37.5705 39.225 50.8941 43.1769 46.668 32.1905 0 28.4894 81.8578 
110.347 103.516 44.6547 55.2405 67.7144 79.3835 71.6663 57.968 54.3136 28.4894 0 110.347 
0 0 0 0 0 0 0 0 0 0 0 0 
Printing tau_prime:
0 2.1368 20.536 17.5637 12.1067 8.31536 10.7898 18.7476 17.2449 21.7069 29.2614 0 
2.1368 0 19.6937 16.7988 10.9548 6.40168 9.56133 16.6486 15.109 19.9155 27.4846 2.1368 
20.536 19.6937 0 3.02645 8.95548 15.2797 10.3903 23.7326 19.7961 11.8932 15.8976 20.536 
17.5637 16.7988 3.02645 0 6.34239 12.7804 7.73788 22.3488 18.4998 12.2297 17.446 17.5637 
12.1067 10.9548 8.95548 6.34239 0 6.44161 1.4375 17.1217 13.5605 11.3531 18.4099 12.1067 
8.31536 6.40168 15.2797 12.7804 6.44161 0 5.09478 12.625 9.97487 13.54 21.1093 8.31536 
10.7898 9.56133 10.3903 7.73788 1.4375 5.09478 0 16.3501 12.9478 11.9917 19.2515 10.7898 
18.7476 16.6486 23.7326 22.3488 17.1217 12.625 16.3501 0 3.95932 14.6367 20.0416 18.7476 
17.2449 15.109 19.7961 18.4998 13.5605 9.97487 12.9478 3.95932 0 10.9431 16.9944 17.2449 
21.7069 19.9155 11.8932 12.2297 11.3531 13.54 11.9917 14.6367 10.9431 0 7.57001 21.7069 
29.2614 27.4846 15.8976 17.446 18.4099 21.1093 19.2515 20.0416 16.9944 7.57001 0 29.2614 
0 0 0 0 0 0 0 0 0 0 0 0 
Version identifier: 22.1.1.0 | 2022-11-28 | 9160aff4d
CPXPARAM_MIP_Tolerances_Integrality              0
Tried aggregator 1 time.
MIP Presolve eliminated 1 rows and 12 columns.
MIP Presolve modified 20 coefficients.
Reduced MIP has 122 rows, 120 columns, and 510 nonzeros.
Reduced MIP has 110 binaries, 0 generals, 0 SOSs, and 0 indicators.
Presolve time = 0.00 sec. (0.27 ticks)
Found incumbent of value 560.873800 after 0.00 sec. (0.75 ticks)
Probing time = 0.00 sec. (0.26 ticks)
Cover probing fixed 0 vars, tightened 10 bounds.
Tried aggregator 1 time.
Detecting symmetries...
MIP Presolve eliminated 10 rows and 0 columns.
MIP Presolve modified 180 coefficients.
Reduced MIP has 112 rows, 120 columns, and 490 nonzeros.
Reduced MIP has 110 binaries, 0 generals, 0 SOSs, and 0 indicators.
Presolve time = 0.00 sec. (0.35 ticks)
Probing time = 0.00 sec. (0.26 ticks)
Clique table members: 67.
MIP emphasis: balance optimality and feasibility.
MIP search method: dynamic search.
Parallel mode: deterministic, using up to 20 threads.
Root relaxation solution time = 0.00 sec. (0.19 ticks)

        Nodes                                         Cuts/
   Node  Left     Objective  IInf  Best Integer    Best Bound    ItCnt     Gap

*     0+    0                          560.8738        0.0000           100.00%
      0     0      176.4803    20      560.8738      176.4803       21   68.53%
      0     0      228.5398    18      560.8738      Cuts: 27       44   59.25%
*     0+    0                          346.2620      228.5398            34.00%
      0     0      228.5398    18      346.2620      Cuts: 35       53   34.00%
*     0+    0                          292.2391      228.5398            21.80%
      0     0      228.5398    18      292.2391      Cuts: 18       56   21.80%
*     0+    0                          255.6965      228.5398            10.62%
Detecting symmetries...

Repeating presolve.
Tried aggregator 2 times.
MIP Presolve eliminated 38 rows and 54 columns.
Aggregator did 4 substitutions.
Reduced MIP has 70 rows, 62 columns, and 260 nonzeros.
Reduced MIP has 52 binaries, 0 generals, 0 SOSs, and 0 indicators.
Presolve time = 0.00 sec. (0.19 ticks)
Probing time = 0.00 sec. (0.10 ticks)
Cover probing fixed 0 vars, tightened 16 bounds.
Tried aggregator 1 time.
Detecting symmetries...
MIP Presolve modified 100 coefficients.
Reduced MIP has 70 rows, 62 columns, and 260 nonzeros.
Reduced MIP has 52 binaries, 0 generals, 0 SOSs, and 0 indicators.
Presolve time = 0.00 sec. (0.17 ticks)
Represolve time = 0.00 sec. (0.63 ticks)
Probing time = 0.00 sec. (0.10 ticks)
Cover probing fixed 0 vars, tightened 2 bounds.
Clique table members: 43.
MIP emphasis: balance optimality and feasibility.
MIP search method: dynamic search.
Parallel mode: deterministic, using up to 20 threads.
Root relaxation solution time = 0.00 sec. (0.14 ticks)

        Nodes                                         Cuts/
   Node  Left     Objective  IInf  Best Integer    Best Bound    ItCnt     Gap

*     0+    0                          255.6965      228.5398            10.62%
      0     0      228.5398    18      255.6965      228.5398       79   10.62%
      0     0      228.5398    18      255.6965      Cuts: 15       96   10.62%
      0     0      228.5398    18      255.6965      Cuts: 14       98   10.62%
      0     0        cutoff            255.6965      255.6965       98    0.00%
Elapsed time = 0.03 sec. (12.51 ticks, tree = 0.01 MB, solutions = 4)

Clique cuts applied:  4
Implied bound cuts applied:  6
Mixed integer rounding cuts applied:  4
Gomory fractional cuts applied:  1

Root node processing (before b&c):
  Real time             =    0.03 sec. (12.51 ticks)
Parallel b&c, 20 threads:
  Real time             =    0.00 sec. (0.00 ticks)
  Sync time (average)   =    0.00 sec.
  Wait time (average)   =    0.00 sec.
                          ------------
Total (root+branch&cut) =    0.03 sec. (12.51 ticks)

TSP solution for this instance: 0 1 7 8 9 10 2 3 4 6 5 11 
12
Warmstart X[1][0] == 1
Warmstart X[2][1] == 1
Warmstart X[3][7] == 1
Warmstart X[4][8] == 1
Warmstart X[5][9] == 1
Warmstart X[6][10] == 1
Warmstart X[7][2] == 1
Warmstart X[8][3] == 1
Warmstart X[9][4] == 1
Warmstart X[10][6] == 1
Warmstart X[11][5] == 1
---------------------------------------------
Calculate max stage gap for sortie.... 
Stage gap of 5 with smallest length = 19.7594 violated endurance constraint!
---------------------------------------------
Variable z[1][6] was set to 0.
Variable z[1][7] was set to 0.
Variable z[1][8] was set to 0.
Variable z[1][9] was set to 0.
Variable z[1][10] was set to 0.
Variable z[1][11] was set to 0.
Variable z[1][12] was set to 0.
Variable z[2][7] was set to 0.
Variable z[2][8] was set to 0.
Variable z[2][9] was set to 0.
Variable z[2][10] was set to 0.
Variable z[2][11] was set to 0.
Variable z[2][12] was set to 0.
Variable z[3][8] was set to 0.
Variable z[3][9] was set to 0.
Variable z[3][10] was set to 0.
Variable z[3][11] was set to 0.
Variable z[3][12] was set to 0.
Variable z[4][9] was set to 0.
Variable z[4][10] was set to 0.
Variable z[4][11] was set to 0.
Variable z[4][12] was set to 0.
Variable z[5][10] was set to 0.
Variable z[5][11] was set to 0.
Variable z[5][12] was set to 0.
Variable z[6][11] was set to 0.
Variable z[6][12] was set to 0.
Variable z[7][12] was set to 0.
Num constraint added = 5940
Warning:  Output names have been modified due to duplicate names or characters invalid in LP format.
Version identifier: 22.1.1.0 | 2022-11-28 | 9160aff4d
CPXPARAM_TimeLimit                               200
CPXPARAM_MIP_Tolerances_Integrality              0
1 of 1 MIP starts provided solutions.
MIP start 'm1' defined initial solution with objective 255.6965.
Tried aggregator 5 times.
MIP Presolve eliminated 7334 rows and 2020 columns.
MIP Presolve modified 2417 coefficients.
Aggregator did 40 substitutions.
Reduced MIP has 1353 rows, 2716 columns, and 44685 nonzeros.
Reduced MIP has 2695 binaries, 0 generals, 0 SOSs, and 0 indicators.
Presolve time = 0.10 sec. (232.56 ticks)
Probing fixed 272 vars, tightened 0 bounds.
Probing changed sense of 4 constraints.
Probing time = 0.04 sec. (88.97 ticks)
Tried aggregator 2 times.
MIP Presolve eliminated 41 rows and 272 columns.
MIP Presolve modified 575 coefficients.
Aggregator did 19 substitutions.
Reduced MIP has 1273 rows, 2425 columns, and 37811 nonzeros.
Reduced MIP has 2404 binaries, 0 generals, 0 SOSs, and 0 indicators.
Presolve time = 0.03 sec. (53.45 ticks)
Probing time = 0.00 sec. (5.16 ticks)
Tried aggregator 1 time.
Detecting symmetries...
MIP Presolve modified 23 coefficients.
Reduced MIP has 1272 rows, 2425 columns, and 37788 nonzeros.
Reduced MIP has 2404 binaries, 0 generals, 0 SOSs, and 0 indicators.
Presolve time = 0.02 sec. (32.82 ticks)
Probing time = 0.00 sec. (5.22 ticks)
Clique table members: 11021.
MIP emphasis: balance optimality and feasibility.
MIP search method: dynamic search.
Parallel mode: deterministic, using up to 20 threads.
Root relaxation solution time = 0.12 sec. (260.09 ticks)

        Nodes                                         Cuts/
   Node  Left     Objective  IInf  Best Integer    Best Bound    ItCnt     Gap

*     0+    0                          255.6965        6.8312            97.33%
      0     0      176.2631   262      255.6965      176.2631       37   31.07%
*     0+    0                          254.7039      176.2631            30.80%
      0     0      190.3868   268      254.7039      Cuts: 74     1448   25.25%
      0     0      201.6310   308      254.7039      Cuts: 62     2564   20.84%
      0     0      202.2522   356      254.7039      Cuts: 39     2795   20.59%
      0     0      202.9167   332      254.7039       Cuts: 8     3122   20.33%
      0     0      206.3881   352      254.7039      Cuts: 27     4558   18.97%
Detecting symmetries...
      0     0      208.1920   277      254.7039      Cuts: 41     5410   18.26%
      0     0      208.4290   283      254.7039      Cuts: 19     5661   18.17%
      0     0      208.6157   305      254.7039      Cuts: 36     5867   18.09%
      0     0      208.8696   322      254.7039      Cuts: 14     6249   18.00%
      0     0      208.9291   322      254.7039       Cuts: 7     6577   17.97%
      0     0      208.9541   330      254.7039      Cuts: 11     6744   17.96%
      0     0      208.9904   362      254.7039       Cuts: 4     7109   17.95%
      0     0      209.0684   319      254.7039       Cuts: 5     7243   17.92%
      0     0      209.1662   357      254.7039       Cuts: 5     7442   17.88%
      0     0      209.1867   349      254.7039   ZeroHalf: 3     7576   17.87%
      0     0      209.2101   360      254.7039       Cuts: 5     7740   17.86%
Detecting symmetries...
      0     2      209.2101   359      254.7039      209.2101     7741   17.86%
Elapsed time = 1.66 sec. (2909.77 ticks, tree = 0.02 MB, solutions = 2)
     17    10      244.3502   109      254.7039      209.2101    12256   17.86%
     47     3      212.1811   198      254.7039      209.2123    19126   17.86%
    126    31      246.2198   221      254.7039      212.6491    36852   16.51%
    787    90      238.4473   132      254.7039      216.3917    99536   15.04%
   1166   100        cutoff            254.7039      216.3917   155144   15.04%
   1363    31      244.4038   148      254.7039      216.3917   180455   15.04%
   1967    97        cutoff            254.7039      217.2963   227392   14.69%
   2501   232      243.7286   143      254.7039      217.3405   303664   14.67%
   2763   307        cutoff            254.7039      217.3405   354660   14.67%
   3987   549      250.5244   162      254.7039      222.2757   539536   12.73%
Elapsed time = 4.50 sec. (6169.64 ticks, tree = 0.46 MB, solutions = 2)
   5729   750      251.7312   157      254.7039      226.0683   804742   11.24%

GUB cover cuts applied:  4
Clique cuts applied:  1
Cover cuts applied:  146
Implied bound cuts applied:  110
Flow cuts applied:  1
Mixed integer rounding cuts applied:  3
Zero-half cuts applied:  47
Gomory fractional cuts applied:  2

Root node processing (before b&c):
  Real time             =    1.61 sec. (2847.47 ticks)
Parallel b&c, 20 threads:
  Real time             =    4.80 sec. (4864.72 ticks)
  Sync time (average)   =    1.65 sec.
  Wait time (average)   =    0.00 sec.
                          ------------
Total (root+branch&cut) =    6.41 sec. (7712.18 ticks)
Feasible solution found!
Truck nodes:
Stage 1 at customer 0 with arrival time is: 0
Stage 1 at customer 0 with departure time is: 0
Stage 2 at customer 1 with arrival time is: 6.83125
Stage 2 at customer 1 with departure time is: 15.717
Stage 3 at customer 7 with arrival time is: 61.2649
Stage 3 at customer 7 with departure time is: 61.2649
Stage 4 at customer 8 with arrival time is: 75.7423
Stage 4 at customer 8 with departure time is: 75.7423
Stage 5 at customer 9 with arrival time is: 107.933
Stage 5 at customer 9 with departure time is: 107.933
Stage 6 at customer 10 with arrival time is: 136.422
Stage 6 at customer 10 with departure time is: 136.422
Stage 7 at customer 2 with arrival time is: 181.077
Stage 7 at customer 2 with departure time is: 181.077
Stage 8 at customer 3 with arrival time is: 191.663
Stage 8 at customer 3 with departure time is: 191.663
Stage 9 at customer 4 with arrival time is: 212.071
Stage 9 at customer 4 with departure time is: 212.071
Stage 10 at customer 6 with arrival time is: 216.023
Stage 10 at customer 6 with departure time is: 216.023
Stage 11 at customer 1 with arrival time is: 247.873
Stage 11 at customer 1 with departure time is: 247.873
Stage 12 at customer 11 with arrival time is: 254.704
Stage 12 at customer 11 with departure time is: 254.704
Truck arcs:
Arc 1 connecting 0 and 1 with cost 6.83125 
Arc 2 connecting 1 and 7 with cost 45.5479 
Arc 3 connecting 7 and 8 with cost 14.4774 
Arc 4 connecting 8 and 9 with cost 32.1905 
Arc 5 connecting 9 and 10 with cost 28.4894 
Arc 6 connecting 10 and 2 with cost 44.6547 
Arc 7 connecting 2 and 3 with cost 10.5858 
Arc 8 connecting 3 and 4 with cost 20.4084 
Arc 9 connecting 4 and 6 with cost 3.95188 
Arc 10 connecting 6 and 1 with cost 31.8496 
Arc 11 connecting 1 and 11 with cost 6.83125 
Customer 5 served by drone.
Drone fly from 0 at stage 1 to serve 5 and then fly back to 1 at stage 2. 
Truck arcs during this sortie: 0--->1
Truck travel time from stage 1 to 2 is: 6.83125
Total drone travel time: 14.717
Drone arrival time: 14.717
Truck arrival time: 6.83125
Truck departure time = max(d/a, t/a) plus (sl/sr): 15.717
Done!
-------------------------Re-calculated objective-----------------------
254.704
------------------------------------------------------------------------
Solve time: 6.413
Node 1 was revisited 1 times!
OBJECTIVE VALUE: 254.704, NUMBER OF SORTIES: 1.
Number of revisit: 1
In write mode
